32      4       
18      15      14      13      
0       0       0       0       0       3       2       3       4       
10      18      0       14      0       3       5       6       8       
5       0       11      12      0       2       5       6       
4       13      0       0       10      2       5       8       
8       0       10      11      0       1       7       
7       14      15      0       0       1       7       
4       0       15      0       1       2       9       10      
5       16      15      0       0       2       9       10      
4       2       0       14      0       3       11      13      14      
5       10      0       7       0       3       11      12      14      
4       11      0       5       0       2       15      16      
10      18      0       0       13      2       15      16      
6       18      0       11      0       2       15      16      
3       0       6       0       2       1       15      
7       18      0       14      0       2       17      20      
2       0       0       11      12      2       18      20      
7       5       0       0       12      1       18      
3       0       13      0       13      1       19      
5       0       0       9       10      2       21      22      
6       7       4       0       0       1       21      
3       0       15      0       9       2       23      24      
1       0       1       0       10      1       23      
1       0       15      0       12      2       26      28      
1       18      11      0       0       1       25      
7       0       0       14      13      2       27      28      
6       18      0       5       0       1       27      
2       0       13      13      0       2       29      30      
5       17      0       0       13      2       29      30      
2       0       15      0       5       1       31      
8       0       0       14      11      1       31      
2       0       10      4       0       1       32      
0       0       0       0       0       0       
